17	4
12	16	11	14	
0	0	0	0	0	3	2	3	4	
7	0	0	0	6	3	9	10	11	
10	0	0	0	10	3	14	17	17	
10	0	2	0	0	2	5	17	
4	2	0	0	0	3	6	15	17	
25	0	10	0	0	2	7	8	
250	0	5	0	0	2	9	17	
125	0	0	0	10	2	13	17	
75	0	5	0	0	3	16	17	17	
75	3	0	0	0	1	12	
25	0	0	1	0	1	17	
225	6	0	0	0	3	17	17	17	
5	0	0	0	3	3	17	17	17	
6	0	8	0	0	3	16	17	17	
8	0	0	0	1	2	17	17	
4	3	0	0	0	1	17	
0	0	0	0	0	0	
